HUN,8,6,836
5,10,2,24,1,2,3,10,0,10,4,19
1,10,3,12,5,20,0,5,2,28,4,22
3,20,2,14,1,11,5,6,4,12,0,10
2,30,0,1,4,11,1,28,5,18,3,19
5,16,1,27,3,2,2,18,0,6,4,29
1,25,3,26,2,8,0,18,5,27,4,13
4,7,2,21,5,28,0,10,1,12,3,12
1,25,2,23,5,23,4,28,3,13,0,5
